50	100	100	100
70	88	31
80	73	48
96	73	3
74	69	28
97	84	2
95	81	43
87	79	15
72	67	25
69	99	7
94	91	39
79	87	38
94	93	33
95	93	13
95	88	5
92	85	2
73	66	43
94	69	5
80	92	20
82	73	6
68	82	32
68	97	15
94	71	36
84	67	1
85	70	24
77	84	1
71	87	43
92	89	47
87	86	33
92	75	3
71	89	27
91	73	47
96	94	11
87	73	38
95	81	14
79	69	47
97	88	31
86	84	28
75	97	40
70	96	35
86	96	29
93	72	18
82	73	4
76	71	23
87	98	39
89	82	45
79	73	30
93	70	41
88	96	15
83	83	13
93	72	23
